p edges 220 1223
e 1 49
e 1 51
e 1 83
e 1 91
e 1 92
e 1 93
e 1 105
e 1 107
e 1 156
e 1 157
e 1 181
e 1 189
e 2 57
e 2 156
e 2 158
e 2 180
e 2 181
e 2 191
e 2 192
e 3 40
e 3 49
e 3 75
e 3 138
e 3 182
e 3 219
e 4 100
e 4 149
e 4 150
e 4 160
e 4 170
e 4 186
e 5 148
e 5 189
e 5 209
e 6 107
e 6 122
e 6 134
e 6 205
e 7 55
e 7 61
e 7 71
e 7 72
e 7 74
e 7 92
e 7 100
e 7 107
e 7 138
e 7 151
e 7 152
e 7 154
e 7 189
e 7 193
e 7 205
e 7 207
e 8 53
e 8 54
e 8 55
e 8 71
e 8 76
e 8 87
e 8 100
e 8 122
e 8 138
e 8 147
e 8 149
e 8 153
e 8 154
e 8 166
e 8 169
e 8 184
e 8 194
e 8 195
e 9 58
e 9 82
e 9 83
e 9 84
e 9 85
e 10 33
e 10 99
e 11 64
e 11 76
e 11 138
e 11 177
e 12 58
e 12 63
e 12 83
e 12 87
e 12 114
e 12 125
e 12 165
e 12 180
e 12 190
e 12 196
e 12 199
e 12 201
e 13 31
e 13 35
e 13 65
e 13 118
e 13 119
e 13 188
e 13 202
e 14 29
e 14 76
e 14 101
e 14 155
e 14 159
e 14 185
e 14 188
e 14 192
e 15 35
e 15 43
e 15 45
e 15 72
e 15 78
e 15 82
e 15 86
e 15 87
e 15 121
e 15 215
e 16 53
e 16 54
e 16 55
e 16 172
e 17 46
e 17 52
e 17 53
e 17 54
e 17 123
e 17 165
e 17 219
e 18 61
e 18 94
e 18 155
e 19 106
e 19 218
e 20 42
e 20 106
e 20 159
e 20 182
e 20 191
e 21 30
e 21 32
e 22 30
e 22 32
e 22 61
e 22 62
e 22 105
e 22 133
e 22 162
e 23 115
e 23 118
e 23 188
e 24 30
e 24 128
e 24 164
e 24 187
e 24 190
e 25 104
e 25 133
e 25 164
e 25 165
e 25 166
e 26 66
e 26 67
e 26 68
e 26 103
e 26 135
e 26 136
e 26 137
e 26 140
e 26 167
e 26 195
e 26 202
e 26 208
e 27 64
e 27 68
e 27 81
e 27 142
e 27 197
e 28 50
e 28 51
e 28 69
e 28 109
e 28 110
e 28 111
e 28 124
e 28 167
e 28 213
e 28 215
e 29 58
e 29 101
e 29 127
e 29 159
e 29 192
e 29 214
e 30 32
e 30 48
e 30 61
e 30 62
e 30 105
e 30 133
e 30 147
e 30 162
e 30 164
e 30 187
e 30 206
e 31 35
e 31 65
e 31 115
e 31 118
e 31 127
e 31 181
e 31 202
e 31 203
e 31 204
e 32 105
e 32 162
e 33 185
e 34 108
e 34 198
e 34 204
e 34 211
e 35 50
e 35 51
e 35 72
e 35 74
e 35 118
e 35 121
e 35 129
e 35 181
e 35 197
e 35 203
e 36 54
e 36 82
e 36 84
e 36 85
e 36 90
e 36 149
e 36 150
e 36 153
e 36 160
e 36 209
e 36 210
e 36 216
e 37 65
e 37 66
e 37 169
e 37 182
e 38 69
e 38 111
e 38 128
e 38 129
e 38 144
e 38 195
e 39 40
e 39 116
e 39 201
e 39 217
e 40 49
e 40 116
e 40 182
e 41 72
e 41 74
e 41 112
e 41 129
e 41 177
e 41 180
e 41 197
e 41 200
e 42 106
e 42 191
e 43 45
e 43 77
e 43 78
e 43 86
e 43 87
e 43 99
e 43 112
e 43 121
e 43 163
e 43 174
e 43 215
e 44 60
e 44 64
e 44 73
e 44 74
e 44 75
e 44 76
e 44 126
e 44 133
e 44 173
e 44 175
e 44 183
e 44 186
e 44 194
e 44 200
e 44 219
e 45 46
e 45 51
e 45 75
e 45 77
e 45 78
e 45 86
e 45 87
e 45 94
e 45 99
e 45 112
e 45 121
e 45 163
e 45 174
e 46 51
e 46 52
e 46 75
e 46 94
e 46 123
e 47 70
e 47 105
e 47 123
e 47 161
e 47 162
e 47 172
e 47 182
e 47 195
e 47 207
e 48 50
e 48 124
e 48 134
e 48 141
e 48 147
e 48 206
e 48 220
e 49 92
e 49 93
e 50 51
e 50 113
e 50 117
e 50 141
e 50 155
e 50 171
e 50 173
e 50 174
e 50 175
e 50 178
e 50 213
e 50 215
e 50 220
e 51 59
e 51 75
e 51 91
e 51 94
e 51 156
e 51 187
e 51 211
e 51 213
e 51 215
e 51 217
e 52 73
e 52 74
e 52 86
e 52 87
e 52 95
e 52 171
e 52 173
e 52 184
e 52 192
e 52 203
e 52 214
e 52 215
e 52 216
e 53 54
e 53 55
e 53 100
e 53 101
e 53 114
e 53 155
e 53 172
e 53 184
e 53 193
e 53 196
e 53 201
e 53 203
e 53 214
e 53 215
e 53 219
e 54 55
e 54 82
e 54 84
e 54 85
e 54 100
e 54 101
e 54 108
e 54 114
e 54 149
e 54 150
e 54 153
e 54 184
e 54 193
e 54 196
e 54 201
e 54 209
e 54 210
e 54 214
e 54 219
e 55 79
e 55 100
e 55 132
e 55 145
e 55 151
e 55 152
e 55 179
e 55 184
e 55 189
e 55 220
e 56 120
e 56 128
e 56 136
e 56 137
e 56 166
e 56 168
e 56 169
e 56 170
e 56 185
e 57 156
e 57 158
e 57 180
e 57 191
e 58 82
e 58 201
e 58 214
e 59 72
e 59 74
e 59 94
e 59 104
e 59 123
e 59 124
e 59 131
e 59 206
e 59 212
e 59 217
e 59 219
e 60 73
e 60 74
e 60 75
e 60 80
e 60 97
e 60 173
e 60 175
e 60 183
e 60 186
e 60 194
e 60 195
e 60 204
e 61 70
e 61 71
e 61 143
e 61 151
e 61 189
e 61 193
e 61 205
e 61 207
e 62 89
e 62 102
e 62 104
e 62 105
e 62 125
e 62 133
e 62 162
e 62 187
e 63 83
e 63 89
e 63 102
e 63 114
e 63 128
e 63 165
e 63 180
e 63 196
e 63 199
e 63 201
e 64 75
e 64 76
e 64 89
e 64 102
e 64 104
e 64 113
e 64 126
e 64 133
e 64 138
e 64 187
e 64 197
e 64 219
e 65 66
e 65 88
e 65 115
e 65 117
e 65 118
e 65 127
e 65 145
e 65 147
e 65 202
e 65 204
e 66 67
e 66 135
e 66 167
e 66 182
e 66 202
e 67 98
e 67 103
e 67 112
e 67 126
e 67 135
e 67 136
e 67 137
e 67 140
e 67 163
e 67 167
e 67 195
e 67 202
e 67 208
e 67 212
e 68 81
e 68 103
e 68 142
e 68 208
e 69 111
e 69 167
e 69 195
e 69 213
e 70 71
e 70 79
e 70 105
e 70 143
e 70 162
e 70 172
e 70 182
e 70 195
e 70 207
e 71 79
e 71 122
e 71 143
e 71 147
e 71 149
e 71 153
e 71 193
e 71 195
e 71 205
e 72 74
e 72 94
e 72 104
e 72 107
e 72 112
e 72 121
e 72 124
e 72 193
e 72 197
e 72 212
e 72 217
e 72 219
e 73 74
e 73 75
e 73 86
e 73 95
e 73 128
e 73 129
e 73 171
e 73 186
e 73 192
e 73 194
e 73 215
e 74 86
e 74 95
e 74 107
e 74 112
e 74 129
e 74 171
e 74 173
e 74 175
e 74 183
e 74 193
e 74 215
e 74 217
e 75 76
e 75 94
e 75 126
e 75 128
e 75 133
e 75 186
e 75 204
e 75 211
e 75 219
e 76 87
e 76 126
e 76 133
e 76 138
e 76 149
e 76 153
e 76 155
e 76 159
e 76 169
e 76 184
e 76 185
e 76 188
e 76 219
e 77 95
e 77 99
e 77 163
e 77 174
e 77 176
e 77 192
e 77 212
e 77 217
e 78 82
e 78 86
e 78 87
e 78 112
e 78 121
e 78 215
e 79 80
e 79 116
e 79 121
e 79 132
e 79 134
e 79 143
e 79 145
e 79 179
e 79 190
e 79 218
e 80 97
e 80 109
e 80 132
e 80 170
e 80 183
e 80 186
e 80 190
e 80 195
e 80 204
e 80 218
e 81 99
e 81 103
e 81 110
e 81 120
e 81 140
e 81 142
e 81 144
e 81 148
e 81 170
e 81 191
e 82 83
e 82 84
e 82 85
e 82 90
e 82 121
e 82 149
e 82 150
e 82 153
e 82 209
e 82 210
e 82 216
e 83 84
e 83 85
e 83 92
e 83 93
e 83 105
e 83 107
e 83 181
e 83 189
e 83 201
e 84 85
e 84 148
e 84 149
e 84 150
e 84 153
e 84 160
e 84 163
e 84 209
e 84 210
e 84 216
e 85 149
e 85 150
e 85 153
e 85 160
e 85 209
e 85 210
e 86 95
e 86 121
e 86 171
e 86 192
e 86 215
e 87 112
e 87 121
e 87 149
e 87 153
e 87 169
e 87 180
e 87 184
e 87 201
e 87 203
e 88 125
e 88 127
e 88 145
e 88 158
e 88 159
e 88 181
e 88 196
e 89 90
e 89 96
e 89 102
e 89 104
e 89 113
e 89 124
e 89 125
e 89 128
e 89 173
e 89 178
e 89 186
e 89 187
e 89 212
e 89 219
e 90 102
e 90 104
e 90 153
e 90 178
e 90 210
e 90 212
e 90 216
e 91 92
e 91 143
e 91 156
e 91 157
e 91 158
e 92 93
e 92 105
e 92 107
e 92 156
e 92 181
e 92 189
e 92 193
e 93 143
e 93 162
e 93 181
e 93 189
e 94 98
e 94 104
e 94 124
e 94 155
e 94 164
e 94 171
e 94 212
e 94 219
e 95 171
e 95 176
e 95 192
e 95 212
e 95 215
e 96 97
e 96 135
e 96 139
e 96 173
e 96 178
e 97 139
e 97 142
e 97 170
e 97 183
e 97 186
e 97 200
e 97 204
e 98 112
e 98 126
e 98 163
e 98 164
e 98 171
e 98 174
e 98 175
e 98 176
e 98 178
e 98 212
e 98 213
e 99 119
e 99 142
e 99 174
e 99 189
e 99 209
e 100 141
e 100 150
e 100 151
e 100 152
e 100 184
e 100 189
e 100 220
e 101 127
e 101 159
e 101 192
e 101 201
e 102 104
e 102 113
e 102 124
e 102 125
e 102 128
e 102 175
e 102 176
e 102 178
e 102 186
e 102 187
e 102 212
e 102 219
e 103 120
e 103 135
e 103 136
e 103 137
e 103 140
e 103 142
e 103 144
e 103 170
e 103 195
e 103 208
e 104 113
e 104 125
e 104 139
e 104 165
e 104 178
e 104 187
e 104 200
e 104 212
e 105 107
e 105 133
e 105 162
e 105 181
e 105 182
e 106 159
e 107 122
e 107 146
e 107 152
e 107 181
e 107 193
e 108 144
e 108 150
e 108 154
e 108 194
e 108 198
e 108 209
e 108 210
e 108 216
e 109 124
e 109 170
e 109 218
e 110 111
e 110 153
e 110 170
e 110 191
e 111 170
e 112 126
e 112 129
e 112 163
e 112 176
e 112 180
e 112 197
e 112 212
e 113 117
e 113 155
e 113 171
e 113 173
e 113 174
e 113 175
e 113 178
e 113 187
e 113 213
e 114 125
e 114 165
e 114 190
e 114 193
e 114 196
e 114 199
e 114 201
e 114 214
e 115 127
e 115 204
e 116 121
e 116 132
e 117 127
e 117 132
e 117 145
e 117 147
e 117 173
e 117 185
e 117 208
e 117 217
e 118 119
e 118 202
e 119 188
e 119 189
e 119 209
e 120 137
e 120 140
e 120 142
e 120 144
e 120 168
e 120 169
e 120 170
e 121 132
e 122 147
e 122 149
e 122 153
e 122 195
e 122 205
e 123 131
e 123 161
e 123 206
e 124 147
e 124 178
e 124 186
e 124 206
e 124 219
e 125 159
e 125 187
e 125 190
e 125 196
e 125 199
e 125 201
e 126 133
e 126 163
e 126 200
e 126 212
e 126 219
e 127 145
e 127 147
e 127 159
e 127 204
e 128 129
e 128 166
e 128 185
e 128 190
e 128 204
e 128 211
e 129 144
e 129 180
e 129 202
e 130 131
e 130 136
e 130 137
e 130 161
e 130 173
e 130 195
e 130 198
e 130 208
e 131 136
e 131 137
e 131 161
e 131 173
e 131 195
e 131 206
e 131 208
e 132 134
e 132 145
e 132 179
e 132 185
e 132 190
e 132 218
e 133 162
e 133 164
e 133 200
e 133 219
e 134 147
e 134 190
e 134 205
e 134 206
e 135 136
e 135 137
e 135 139
e 135 140
e 135 167
e 135 202
e 136 137
e 136 166
e 136 168
e 136 169
e 136 220
e 137 166
e 137 168
e 137 169
e 137 170
e 137 220
e 138 151
e 138 152
e 138 154
e 138 166
e 138 184
e 138 189
e 138 194
e 139 200
e 140 142
e 140 144
e 140 170
e 141 151
e 141 152
e 141 157
e 141 179
e 141 193
e 141 199
e 141 220
e 142 144
e 142 148
e 142 170
e 142 200
e 143 158
e 143 162
e 144 170
e 144 194
e 144 202
e 145 147
e 145 158
e 145 179
e 145 181
e 145 220
e 146 152
e 146 161
e 146 198
e 146 207
e 147 149
e 147 153
e 147 195
e 147 206
e 148 168
e 148 172
e 148 189
e 148 209
e 148 210
e 148 214
e 148 216
e 149 150
e 149 153
e 149 160
e 149 169
e 149 184
e 149 195
e 149 209
e 149 210
e 150 153
e 150 154
e 150 209
e 150 210
e 151 152
e 151 154
e 151 189
e 151 207
e 151 220
e 152 154
e 152 189
e 152 220
e 153 169
e 153 170
e 153 184
e 153 209
e 153 210
e 153 216
e 154 166
e 154 184
e 154 189
e 155 159
e 155 172
e 155 173
e 155 174
e 155 175
e 155 178
e 155 185
e 155 188
e 155 203
e 155 213
e 155 214
e 155 215
e 156 187
e 156 191
e 156 211
e 157 179
e 157 187
e 157 193
e 157 199
e 157 211
e 158 180
e 158 181
e 158 191
e 159 185
e 159 188
e 160 170
e 160 186
e 160 209
e 160 210
e 161 198
e 161 207
e 163 174
e 163 200
e 163 212
e 163 216
e 163 217
e 164 165
e 164 166
e 164 171
e 164 187
e 164 190
e 165 196
e 165 199
e 165 219
e 166 168
e 166 169
e 166 184
e 166 185
e 167 202
e 167 213
e 168 169
e 168 170
e 168 172
e 168 220
e 169 170
e 169 184
e 169 220
e 170 200
e 170 218
e 171 174
e 171 175
e 171 178
e 171 192
e 171 213
e 171 215
e 172 182
e 172 184
e 172 195
e 172 203
e 172 214
e 172 215
e 172 216
e 173 174
e 173 175
e 173 178
e 173 183
e 173 184
e 173 186
e 173 195
e 173 203
e 173 213
e 173 214
e 173 216
e 174 175
e 174 178
e 174 183
e 174 197
e 174 208
e 174 213
e 175 176
e 175 178
e 175 183
e 175 186
e 175 213
e 176 192
e 176 212
e 177 197
e 178 186
e 178 212
e 178 213
e 178 219
e 179 193
e 179 199
e 179 220
e 180 181
e 180 191
e 180 192
e 180 201
e 181 189
e 181 203
e 182 184
e 182 203
e 182 207
e 182 214
e 182 216
e 183 186
e 183 195
e 183 197
e 183 204
e 183 208
e 184 194
e 184 203
e 184 214
e 184 216
e 185 188
e 186 194
e 186 195
e 186 204
e 186 219
e 187 211
e 189 207
e 190 196
e 190 199
e 190 218
e 191 192
e 192 212
e 192 215
e 193 196
e 193 201
e 193 205
e 193 214
e 195 204
e 195 208
e 196 199
e 196 201
e 196 214
e 197 200
e 197 208
e 198 204
e 198 211
e 199 201
e 201 214
e 201 217
e 203 214
e 203 215
e 203 216
e 204 211
e 208 217
e 209 210
e 209 214
e 209 216
e 210 214
e 210 216
e 213 215
e 214 215
e 214 216
w 1 204
w 2 880
w 3 672
w 4 355
w 5 498
w 6 541
w 7 336
w 8 346
w 9 170
w 10 504
w 11 543
w 12 126
w 13 199
w 14 24
w 15 476
w 16 896
w 17 860
w 18 645
w 19 960
w 20 920
w 21 815
w 22 460
w 23 698
w 24 442
w 25 773
w 26 642
w 27 388
w 28 39
w 29 482
w 30 184
w 31 312
w 32 184
w 33 495
w 34 133
w 35 186
w 36 83
w 37 890
w 38 106
w 39 147
w 40 248
w 41 48
w 42 39
w 43 251
w 44 388
w 45 106
w 46 2
w 47 750
w 48 104
w 49 79
w 50 455
w 51 358
w 52 137
w 53 103
w 54 4
w 55 98
w 56 268
w 57 33
w 58 434
w 59 227
w 60 169
w 61 354
w 62 77
w 63 394
w 64 115
w 65 79
w 66 30
w 67 40
w 68 107
w 69 826
w 70 79
w 71 3
w 72 318
w 73 106
w 74 39
w 75 296
w 76 12
w 77 90
w 78 109
w 79 354
w 80 145
w 81 66
w 82 394
w 83 39
w 84 266
w 85 128
w 86 37
w 87 394
w 88 896
w 89 188
w 90 39
w 91 392
w 92 358
w 93 358
w 94 237
w 95 91
w 96 508
w 97 66
w 98 180
w 99 495
w 100 417
w 101 453
w 102 297
w 103 138
w 104 119
w 105 90
w 106 39
w 107 273
w 108 584
w 109 775
w 110 893
w 111 66
w 112 137
w 113 25
w 114 234
w 115 301
w 116 604
w 117 473
w 118 301
w 119 498
w 120 86
w 121 19
w 122 184
w 123 137
w 124 184
w 125 64
w 126 48
w 127 64
w 128 119
w 129 774
w 130 605
w 131 282
w 132 21
w 133 107
w 134 184
w 135 66
w 136 18
w 137 93
w 138 327
w 139 424
w 140 112
w 141 63
w 142 437
w 143 562
w 144 119
w 145 24
w 146 717
w 147 358
w 148 495
w 149 39
w 150 226
w 151 133
w 152 8
w 153 66
w 154 188
w 155 117
w 156 45
w 157 403
w 158 45
w 159 39
w 160 605
w 161 112
w 162 79
w 163 495
w 164 119
w 165 107
w 166 107
w 167 112
w 168 401
w 169 109
w 170 39
w 171 462
w 172 103
w 173 45
w 174 56
w 175 21
w 176 681
w 177 456
w 178 257
w 179 500
w 180 39
w 181 33
w 182 79
w 183 336
w 184 29
w 185 504
w 186 39
w 187 253
w 188 301
w 189 5
w 190 438
w 191 39
w 192 39
w 193 31
w 194 296
w 195 66
w 196 103
w 197 495
w 198 282
w 199 31
w 200 456
w 201 438
w 202 106
w 203 467
w 204 242
w 205 273
w 206 353
w 207 169
w 208 112
w 209 5
w 210 177
w 211 342
w 212 97
w 213 20
w 214 83
w 215 125
w 216 237
w 217 414
w 218 39
w 219 31
w 220 376
n 1 x3
n 2 x5
n 3 x7
n 4 x8
n 5 x9
n 6 x10
n 7 x11
n 8 x13
n 9 x19
n 10 x21
n 11 x22
n 12 x23
n 13 x24
n 14 x32
n 15 x33
n 16 x35
n 17 x38
n 18 x40
n 19 x42
n 20 x43
n 21 x44
n 22 x45
n 23 x48
n 24 x49
n 25 x51
n 26 x53
n 27 x59
n 28 x63
n 29 x73
n 30 x88
n 31 x106
n 32 x115
n 33 x127
n 34 x130
n 35 x154
n 36 x194
n 37 x219
n 38 x235
n 39 x249
n 40 x251
n 41 x264
n 42 x269
n 43 x274
n 44 x289
n 45 x352
n 46 x359
n 47 x382
n 48 x417
n 49 x463
n 50 x472
n 51 x476
n 52 x531
n 53 x592
n 54 x593
n 55 x620
n 56 x669
n 57 x671
n 58 x674
n 59 x696
n 60 x700
n 61 x711
n 62 x719
n 63 x725
n 64 x747
n 65 x779
n 66 x781
n 67 x789
n 68 x799
n 69 x870
n 70 x894
n 71 x912
n 72 x1028
n 73 x1036
n 74 x1038
n 75 x1048
n 76 x1056
n 77 x1079
n 78 x1092
n 79 x1110
n 80 x1114
n 81 x1123
n 82 x1202
n 83 x1208
n 84 x1209
n 85 x1210
n 86 x1244
n 87 x1262
n 88 x1324
n 89 x1334
n 90 x1335
n 91 x1450
n 92 x1452
n 93 x1457
n 94 x1470
n 95 x1544
n 96 x1581
n 97 x1582
n 98 x1617
n 99 x1727
n 100 x1764
n 101 x1767
n 102 x1770
n 103 x1788
n 104 x1819
n 105 x1843
n 106 x1991
n 107 x2033
n 108 x2068
n 109 x2157
n 110 x2161
n 111 x2163
n 112 x2305
n 113 x2450
n 114 x2451
n 115 x2466
n 116 x2486
n 117 x2603
n 118 x2704
n 119 x2715
n 120 x2733
n 121 x2751
n 122 x2766
n 123 x2891
n 124 x2965
n 125 x2980
n 126 x3003
n 127 x3042
n 128 x3100
n 129 x3114
n 130 x3132
n 131 x3140
n 132 x3145
n 133 x3214
n 134 x3219
n 135 x3247
n 136 x3249
n 137 x3250
n 138 x3257
n 139 x3276
n 140 x3317
n 141 x3324
n 142 x3386
n 143 x3399
n 144 x3431
n 145 x3510
n 146 x3521
n 147 x3580
n 148 x3582
n 149 x3614
n 150 x3635
n 151 x3647
n 152 x3648
n 153 x3654
n 154 x3664
n 155 x3734
n 156 x3749
n 157 x3768
n 158 x3810
n 159 x3878
n 160 x3883
n 161 x3951
n 162 x4035
n 163 x4236
n 164 x4305
n 165 x4326
n 166 x4425
n 167 x4585
n 168 x4633
n 169 x4780
n 170 x4875
n 171 x4985
n 172 x5016
n 173 x5073
n 174 x5137
n 175 x5150
n 176 x5153
n 177 x5176
n 178 x5242
n 179 x5266
n 180 x5282
n 181 x5287
n 182 x5320
n 183 x5330
n 184 x5341
n 185 x5366
n 186 x5415
n 187 x5419
n 188 x5436
n 189 x5546
n 190 x5573
n 191 x5759
n 192 x5763
n 193 x5848
n 194 x5885
n 195 x5906
n 196 x6012
n 197 x6135
n 198 x6197
n 199 x6253
n 200 x6325
n 201 x6505
n 202 x6583
n 203 x6623
n 204 x6639
n 205 x6675
n 206 x6684
n 207 x6699
n 208 x6730
n 209 x6755
n 210 x6763
n 211 x6785
n 212 x6786
n 213 x6810
n 214 x6815
n 215 x6821
n 216 x6833
n 217 x6937
n 218 x6955
n 219 x7101
n 220 x7107
o 1 3
o 2 5
o 3 7
o 4 8
o 5 9
o 6 10
o 7 11
o 8 13
o 9 19
o 10 21
o 11 22
o 12 23
o 13 24
o 14 32
o 15 33
o 16 35
o 17 38
o 18 40
o 19 42
o 20 43
o 21 44
o 22 45
o 23 48
o 24 49
o 25 51
o 26 53
o 27 59
o 28 63
o 29 73
o 30 88
o 31 106
o 32 115
o 33 127
o 34 130
o 35 154
o 36 194
o 37 219
o 38 235
o 39 249
o 40 251
o 41 264
o 42 269
o 43 274
o 44 289
o 45 352
o 46 359
o 47 382
o 48 417
o 49 463
o 50 472
o 51 476
o 52 531
o 53 592
o 54 593
o 55 620
o 56 669
o 57 671
o 58 674
o 59 696
o 60 700
o 61 711
o 62 719
o 63 725
o 64 747
o 65 779
o 66 781
o 67 789
o 68 799
o 69 870
o 70 894
o 71 912
o 72 1028
o 73 1036
o 74 1038
o 75 1048
o 76 1056
o 77 1079
o 78 1092
o 79 1110
o 80 1114
o 81 1123
o 82 1202
o 83 1208
o 84 1209
o 85 1210
o 86 1244
o 87 1262
o 88 1324
o 89 1334
o 90 1335
o 91 1450
o 92 1452
o 93 1457
o 94 1470
o 95 1544
o 96 1581
o 97 1582
o 98 1617
o 99 1727
o 100 1764
o 101 1767
o 102 1770
o 103 1788
o 104 1819
o 105 1843
o 106 1991
o 107 2033
o 108 2068
o 109 2157
o 110 2161
o 111 2163
o 112 2305
o 113 2450
o 114 2451
o 115 2466
o 116 2486
o 117 2603
o 118 2704
o 119 2715
o 120 2733
o 121 2751
o 122 2766
o 123 2891
o 124 2965
o 125 2980
o 126 3003
o 127 3042
o 128 3100
o 129 3114
o 130 3132
o 131 3140
o 132 3145
o 133 3214
o 134 3219
o 135 3247
o 136 3249
o 137 3250
o 138 3257
o 139 3276
o 140 3317
o 141 3324
o 142 3386
o 143 3399
o 144 3431
o 145 3510
o 146 3521
o 147 3580
o 148 3582
o 149 3614
o 150 3635
o 151 3647
o 152 3648
o 153 3654
o 154 3664
o 155 3734
o 156 3749
o 157 3768
o 158 3810
o 159 3878
o 160 3883
o 161 3951
o 162 4035
o 163 4236
o 164 4305
o 165 4326
o 166 4425
o 167 4585
o 168 4633
o 169 4780
o 170 4875
o 171 4985
o 172 5016
o 173 5073
o 174 5137
o 175 5150
o 176 5153
o 177 5176
o 178 5242
o 179 5266
o 180 5282
o 181 5287
o 182 5320
o 183 5330
o 184 5341
o 185 5366
o 186 5415
o 187 5419
o 188 5436
o 189 5546
o 190 5573
o 191 5759
o 192 5763
o 193 5848
o 194 5885
o 195 5906
o 196 6012
o 197 6135
o 198 6197
o 199 6253
o 200 6325
o 201 6505
o 202 6583
o 203 6623
o 204 6639
o 205 6675
o 206 6684
o 207 6699
o 208 6730
o 209 6755
o 210 6763
o 211 6785
o 212 6786
o 213 6810
o 214 6815
o 215 6821
o 216 6833
o 217 6937
o 218 6955
o 219 7101
o 220 7107
